desiredZ=[1];
nNurses = 181;
hours = 68;
demand = [41 3 19 44 14 38 24 29 42 36 10 30 17 28 36 12 10 6 6 44 38 6 4 4 29 34 23 12 12 10 24 1 39 34 17 41 40 25 1 25 14 36 25 35 10 11 10 16 24 20 43 29 28 12 33 1 27 44 5 39 12 15 17 16 42 20 16 3];
minHours = 10;
maxHours = 43;
maxConsec = 42;
maxPresence = 56;